\ Model Wyndor Problem
\ LP format - for model browsing. Use MPS format to capture full model detail.
Maximize
  3 x_1
Subject To
 Constraint_0: x_1 <= 4
 Constraint_1: <= 12
 Constraint_2: 3 x_1 <= 18
Bounds
End
